(set-info :smt-lib-version 2.6)
(set-logic QF_LIA)
(set-info :category "industrial")
(set-info :status sat)
(declare-fun x0 () Int)
(declare-fun x1 () Int)
(declare-fun x10 () Int)
(declare-fun x11 () Int)
(declare-fun x12 () Int)
(declare-fun x13 () Int)
(declare-fun x14 () Int)
(declare-fun x15 () Int)
(declare-fun x16 () Int)
(declare-fun x17 () Int)
(declare-fun x18 () Int)
(declare-fun x19 () Int)
(declare-fun x2 () Int)
(declare-fun x20 () Int)
(declare-fun x21 () Int)
(declare-fun x22 () Int)
(declare-fun x23 () Int)
(declare-fun x24 () Int)
(declare-fun x3 () Int)
(declare-fun x4 () Int)
(declare-fun x5 () Int)
(declare-fun x6 () Int)
(declare-fun x7 () Int)
(declare-fun x8 () Int)
(declare-fun x9 () Int)
(assert (let ((?v_19 (* 1 x0)) (?v_40 (* 0 x12)) (?v_31 (* 0 x15)) (?v_46 (* 1 x17)) (?v_2 (* 0 x21)) (?v_3 (* 0 x23)) (?v_58 (* 2 x3)) (?v_4 (* 0 x6)) (?v_57 (* 1 x22)) (?v_5 (* 0 x7)) (?v_28 (* 0 x8)) (?v_39 (* 0 x11)) (?v_50 (* 0 x14)) (?v_7 (* 0 x22)) (?v_24 (* 0 x24)) (?v_8 (* 0 x5)) (?v_9 (* 1 x8)) (?v_10 (* 0 x0)) (?v_11 (* 1 x10)) (?v_45 (* 0 x19)) (?v_32 (* 1 x2)) (?v_67 (* 1 x20)) (?v_13 (* 0 x18)) (?v_14 (* 0 x20)) (?v_25 (* 0 x3)) (?v_41 (* 1 x19)) (?v_15 (* 1 x5)) (?v_29 (* 1 x21)) (?v_17 (* 0 x1)) (?v_18 (* 0 x10)) (?v_30 (* 0 x16)) (?v_20 (* 1 x11)) (?v_21 (* 1 x12)) (?v_44 (* 0 x13)) (?v_70 (* 1 x4)) (?v_47 (* 1 x6))) (let ((?v_59 (+ ?v_15 ?v_47)) (?v_23 (* 0 x2)) (?v_26 (* 1 x15)) (?v_42 (* 0 x4)) (?v_35 (* 1 x9))) (let ((?v_48 (+ ?v_35 (* 2 x8))) (?v_65 (* 0 x17)) (?v_64 (* 0 x9)) (?v_74 (* 1 x18)) (?v_43 (* 1 x7)) (?v_52 (* 1 x24)) (?v_66 (* 1 x13)) (?v_56 (* 1 x14)) (?v_71 (* 2 x10)) (?v_75 (* 1 x3)) (?v_73 (* 1 x1)) (?v_0 (* (- 1) x1)) (?v_49 (* (- 1) x10)) (?v_1 (* (- 1) x2)) (?v_37 (* (- 1) x5)) (?v_51 (* (- 2) x19)) (?v_6 (* (- 1) x9)) (?v_27 (* (- 1) x4)) (?v_12 (* (- 2) x4)) (?v_55 (* (- 1) x21)) (?v_61 (* (- 1) x24)) (?v_34 (* (- 1) x6)) (?v_22 (* (- 1) x13)) (?v_36 (* (- 1) x15)) (?v_53 (* (- 1) x16)) (?v_16 (* (- 1) x17)) (?v_38 (* (- 1) x8)) (?v_33 (* (- 2) x22)) (?v_69 (* (- 1) x12)) (?v_60 (* (- 1) x14)) (?v_54 (* (- 1) x7)) (?v_63 (* (- 1) x19)) (?v_68 (* (- 1) x20)) (?v_62 (* (- 2) x0)) (?v_72 (* (- 1) x22))) (and (<= (+ (* (- 2) x16) (+ ?v_19 (+ ?v_0 (+ ?v_49 (+ ?v_40 (+ ?v_1 (+ ?v_31 (+ ?v_46 (+ ?v_37 (+ ?v_2 (+ ?v_3 (+ ?v_58 (+ ?v_4 (+ ?v_57 (+ ?v_5 ?v_28))))))))))))))) 0) (<= (+ ?v_51 (+ ?v_0 (+ ?v_1 (+ ?v_6 (+ ?v_39 (+ ?v_50 (+ ?v_27 (+ ?v_2 (+ ?v_7 (+ ?v_3 (+ ?v_24 (+ ?v_8 (+ ?v_4 (+ ?v_5 ?v_9)))))))))))))) (- 1)) (<= (+ ?v_10 (+ ?v_11 (+ ?v_45 (+ ?v_32 (+ ?v_67 (+ ?v_12 (+ ?v_55 (+ ?v_61 (+ ?v_34 (+ ?v_6 (+ ?v_7 (+ ?v_3 (+ ?v_8 ?v_9))))))))))))) (- 1)) (<= (+ (* (- 2) x14) (+ ?v_10 (+ ?v_11 (+ ?v_22 (+ ?v_36 (+ ?v_53 (+ ?v_16 (+ ?v_13 (+ ?v_14 (+ ?v_25 (+ ?v_41 (+ ?v_12 (+ ?v_15 (+ ?v_38 (+ ?v_6 ?v_29))))))))))))))) 0) (<= (+ ?v_6 (+ ?v_10 (+ ?v_17 (+ ?v_18 (+ ?v_30 (+ ?v_13 (+ ?v_14 (+ ?v_3 (+ ?v_20 (+ ?v_21 (+ ?v_44 (+ ?v_2 (+ ?v_7 (+ ?v_70 ?v_59)))))))))))))) 0) (<= (+ ?v_16 (+ ?v_33 (+ (* (- 1) x3) (+ ?v_17 (+ ?v_18 (+ ?v_23 (+ ?v_26 (+ ?v_2 (+ ?v_42 (+ ?v_4 (+ ?v_15 ?v_48))))))))))) 0) (<= (+ ?v_19 (+ ?v_11 (+ ?v_20 (+ ?v_21 (+ ?v_22 (+ ?v_65 (+ ?v_23 (+ ?v_14 (+ ?v_24 (+ ?v_25 (+ ?v_26 (+ ?v_13 (+ ?v_27 (+ ?v_17 (+ ?v_15 (+ ?v_28 (+ ?v_64 ?v_29))))))))))))))))) 0) (<= (+ ?v_10 (+ ?v_18 (+ (* (- 1) x11) (+ ?v_30 (+ ?v_16 (+ ?v_31 (+ ?v_14 (+ ?v_25 (+ ?v_74 (+ ?v_32 (+ ?v_33 (+ ?v_27 (+ ?v_34 (+ ?v_17 (+ ?v_29 (+ ?v_43 ?v_35)))))))))))))))) 0) (<= (+ ?v_33 (+ ?v_22 (+ ?v_36 (+ ?v_16 (+ ?v_37 (+ ?v_38 (+ ?v_17 (+ ?v_39 (+ ?v_40 (+ ?v_13 (+ ?v_41 (+ ?v_23 (+ ?v_42 (+ ?v_29 (+ ?v_52 ?v_43))))))))))))))) 1) (<= (+ ?v_10 (+ ?v_69 (+ ?v_60 (+ (* (- 2) x15) (+ ?v_27 (+ ?v_17 (+ ?v_44 (+ ?v_45 (+ ?v_14 (+ ?v_3 (+ ?v_46 (+ ?v_15 (+ ?v_47 ?v_48))))))))))))) (- 1)) (<= (+ ?v_19 (+ ?v_49 (+ ?v_50 (+ ?v_30 (+ ?v_51 (+ ?v_17 (+ ?v_20 (+ ?v_26 (+ ?v_46 (+ ?v_2 (+ ?v_25 (+ ?v_52 (+ ?v_8 (+ ?v_35 (+ (* 2 x4) ?v_54))))))))))))))) 0) (<= (+ (* (- 3) x3) (+ (* (- 1) x0) (+ ?v_53 (+ ?v_63 (+ ?v_68 (+ (* (- 2) x5) (+ ?v_17 (+ ?v_18 (+ ?v_39 (+ ?v_31 (+ ?v_13 (+ ?v_66 (+ ?v_56 (+ ?v_32 (+ ?v_42 (+ ?v_47 (+ ?v_54 ?v_28))))))))))))))))) 0) (<= (+ (* (- 2) x23) (+ ?v_55 (+ ?v_6 (+ ?v_17 (+ ?v_11 (+ ?v_56 (+ ?v_41 (+ ?v_23 (+ ?v_57 (+ (* 2 x24) (+ ?v_58 (+ ?v_42 (+ ?v_8 (+ ?v_47 ?v_54)))))))))))))) 1) (<= (+ ?v_53 (+ (* (- 2) x2) (+ (* (- 1) x23) (+ ?v_38 (+ ?v_17 (+ ?v_11 (+ ?v_40 (+ ?v_14 (+ ?v_25 (+ ?v_20 (+ ?v_42 (+ ?v_29 (+ ?v_57 ?v_59))))))))))))) 0) (<= (+ ?v_62 (+ ?v_60 (+ ?v_53 (+ ?v_18 (+ (* (- 3) x17) (+ ?v_61 (+ ?v_39 (+ ?v_32 (+ (* 2 x18) (+ ?v_2 (+ ?v_4 (+ ?v_15 ?v_35)))))))))))) 0) (<= (+ ?v_62 (+ ?v_53 (+ ?v_63 (+ ?v_1 (+ ?v_39 (+ ?v_40 (+ ?v_14 (+ ?v_2 (+ ?v_7 (+ ?v_25 (+ ?v_52 (+ ?v_42 (+ ?v_64 ?v_9))))))))))))) (- 1)) (<= (+ ?v_60 (+ ?v_19 (+ (* 1 x16) (+ ?v_71 (+ ?v_22 (+ ?v_1 (+ ?v_65 (+ ?v_13 (+ ?v_37 (+ ?v_2 (+ ?v_7 (+ ?v_3 (+ ?v_25 (+ ?v_42 (+ ?v_5 (+ ?v_28 ?v_35)))))))))))))))) 1) (<= (+ ?v_49 (+ ?v_56 (+ ?v_36 (+ ?v_16 (+ ?v_13 (+ ?v_3 (+ ?v_66 (+ ?v_67 (+ ?v_75 (+ ?v_27 (+ ?v_37 (+ ?v_6 (+ ?v_2 (+ ?v_4 ?v_43)))))))))))))) 0) (<= (+ ?v_68 (+ ?v_10 (+ ?v_11 (+ ?v_1 (+ ?v_26 (+ (* 2 x16) (+ ?v_41 (+ ?v_7 (+ ?v_25 (+ (* 1 x23) (+ ?v_42 (+ ?v_15 (+ ?v_5 ?v_35))))))))))))) 0) (<= (+ ?v_10 (+ ?v_18 (+ ?v_69 (+ ?v_22 (+ ?v_53 (+ ?v_50 (+ ?v_31 (+ ?v_23 (+ ?v_14 (+ ?v_46 (+ ?v_72 (+ ?v_24 (+ ?v_8 (+ ?v_4 (+ ?v_70 (+ ?v_5 (+ ?v_28 ?v_64))))))))))))))))) 0) (<= (+ (* 3 x0) (+ ?v_18 (+ (* (- 2) x11) (+ ?v_40 (+ ?v_30 (+ ?v_56 (+ ?v_16 (+ ?v_31 (+ ?v_3 (+ ?v_4 (+ ?v_52 (+ ?v_28 ?v_73)))))))))))) 1) (<= (+ ?v_60 (+ ?v_71 (+ ?v_39 (+ ?v_40 (+ ?v_31 (+ ?v_13 (+ ?v_45 (+ ?v_14 (+ ?v_52 (+ ?v_58 (+ (* 3 x22) (+ ?v_27 (+ ?v_8 ?v_4))))))))))))) (- 1)) (<= (+ ?v_10 (+ ?v_51 (+ ?v_36 (+ ?v_30 (+ ?v_14 (+ ?v_72 (+ ?v_2 (+ ?v_24 (+ ?v_25 (+ ?v_28 (+ ?v_64 (+ ?v_73 (+ ?v_21 (+ ?v_74 (+ ?v_32 ?v_5))))))))))))))) 1) (<= (+ ?v_68 (+ ?v_34 (+ ?v_6 (+ ?v_11 (+ ?v_40 (+ ?v_20 (+ ?v_72 (+ ?v_44 (+ ?v_31 (+ ?v_30 (+ ?v_3 (+ ?v_24 (+ ?v_25 (+ ?v_46 (+ ?v_13 (+ ?v_8 (+ ?v_29 (+ ?v_70 ?v_43)))))))))))))))))) (- 1)) (<= (+ ?v_10 (+ ?v_18 (+ ?v_36 (+ ?v_16 (+ ?v_1 (+ ?v_13 (+ ?v_45 (+ ?v_3 (+ ?v_4 (+ ?v_20 (+ ?v_67 (+ ?v_37 (+ ?v_57 (+ ?v_52 (+ ?v_75 ?v_5))))))))))))))) 0))))))
(check-sat)
(exit)
